0001 21
0002 24
0003 9
0004 9
0005 17
0006 19
0007 11
0008 10
0009 10
0010 20
0011 20
0012 5
0013 1
0014 2
0015 4
0016 1
0017 21
0018 4
0019 15
0020 13
0021 13
0022 13
0023 11
0024 11
0025 12
0026 13
0027 13
0028 2
0029 14
0030 1
0031 20
0032 24
0033 21
0034 23
0035 8
0036 15
0037 15
0038 3
0039 17
0040 21
0041 21
0042 16
0043 7
0044 21
0045 5
0046 18
0047 4
0048 8
0049 15
0050 22
0051 19
0052 3
0053 19
0054 8
0055 3
0056 1
0057 15
0058 18
0059 15
0060 8
0061 18
0062 16
0063 22
0064 21
0065 1
0066 24
0067 19
0068 1
0069 19
0070 10
0071 10
0072 1
0073 3
0074 23
0075 4
0076 19
0077 24
0078 6
0079 6
0080 7
0081 6
0082 4
0083 6
0084 3
0085 6
0086 6
0087 6
0088 6
0089 7
0090 7
0091 6
0092 24
0093 24
0094 24
0095 14
0096 11
0097 1
0098 14
0099 16
0100 24
0101 24
0102 24
0103 2
0104 2
0105 20
0106 1
0107 24
0108 1
0109 1
0110 21
0111 24
0112 19
0113 23
0114 2
0115 9
0116 19
0117 19
0118 24
0119 24
0120 22
0121 19
0122 1
0123 24
0124 4
0125 18
0126 1
0127 12
0128 22
0129 12
0130 3
0131 18
0132 22
0133 3
0134 12
0135 12
0136 12
0137 7
0138 3
0139 2
0140 2
0141 16
0142 16
0143 16
0144 4
0145 22
0146 22
0147 8
0148 24
0149 24
0150 18
0151 22
0152 14
0153 24
0154 24
0155 14
0156 1
0157 14
0158 9
0159 22
0160 22
0161 23
0162 5
0163 15
0164 8
0165 14
0166 23
0167 3
0168 2
0169 18
0170 2
0171 24
0172 19
0173 17
0174 21
0175 1
0176 9
0177 23
0178 24
0179 2
0180 23
0181 21
0182 23
0183 9
0184 10
0185 24
0186 22
0187 20
0188 24
0189 5
0190 12
